p cnf 196 1
196 0
w 1 0.106816
w 2 1 1
w 2 -1 0
w 3 2 0
w 3 -2 1
w 4 3 0
w 4 -3 1
w 5 4 1
w 5 -4 0
w 6 5 1
w 6 -5 0
w 7 6 0
w 7 -6 1
w 8 7 1
w 8 -7 0
w 9 8 0.860061
w 9 -8 0.501578
w 10 9 0.716716
w 10 -9 0.935364
w 11 10 0.836026
w 11 -10 0.941881
w 12 11 0
w 12 -11 1
w 13 12 1
w 13 -12 0
w 14 13 1
w 14 -13 0
w 15 1 0
w 15 -1 1
w 16 15 2 0.194844
w 16 15 -2 0.992932
w 16 -15 2 0.17772
w 16 -15 -2 0.271741
w 17 16 3 0.272681
w 17 16 -3 0.843398
w 17 -16 3 0.486123
w 17 -16 -3 0.524835
w 18 17 4 0.733743
w 18 17 -4 0.828206
w 18 -17 4 0.182971
w 18 -17 -4 0.665479
w 19 18 5 0
w 19 18 -5 1
w 19 -18 5 1
w 19 -18 -5 1
w 20 19 6 0
w 20 19 -6 1
w 20 -19 6 0
w 20 -19 -6 1
w 21 20 7 1
w 21 20 -7 1
w 21 -20 7 0
w 21 -20 -7 1
w 22 21 8 1
w 22 21 -8 1
w 22 -21 8 0
w 22 -21 -8 0
w 23 22 9 0.23456
w 23 22 -9 0.501224
w 23 -22 9 0.692781
w 23 -22 -9 0.720683
w 24 23 10 0
w 24 23 -10 0
w 24 -23 10 1
w 24 -23 -10 0
w 25 24 11 0
w 25 24 -11 1
w 25 -24 11 1
w 25 -24 -11 1
w 26 25 12 0
w 26 25 -12 1
w 26 -25 12 0
w 26 -25 -12 0
w 27 26 13 0.0352515
w 27 26 -13 0.0131899
w 27 -26 13 0.992262
w 27 -26 -13 0.41805
w 28 27 14 1
w 28 27 -14 0
w 28 -27 14 1
w 28 -27 -14 1
w 29 15 0.0158177
w 29 -15 0.772853
w 30 29 16 1
w 30 29 -16 0
w 30 -29 16 1
w 30 -29 -16 1
w 31 30 17 0
w 31 30 -17 0
w 31 -30 17 0
w 31 -30 -17 1
w 32 31 18 0.143224
w 32 31 -18 0.52388
w 32 -31 18 0.942151
w 32 -31 -18 0.331749
w 33 32 19 0
w 33 32 -19 0
w 33 -32 19 1
w 33 -32 -19 0
w 34 33 20 0.19795
w 34 33 -20 0.723748
w 34 -33 20 0.988233
w 34 -33 -20 0.193642
w 35 34 21 1
w 35 34 -21 0
w 35 -34 21 0
w 35 -34 -21 1
w 36 35 22 1
w 36 35 -22 1
w 36 -35 22 1
w 36 -35 -22 0
w 37 36 23 1
w 37 36 -23 0
w 37 -36 23 1
w 37 -36 -23 0
w 38 37 24 0
w 38 37 -24 0
w 38 -37 24 0
w 38 -37 -24 1
w 39 38 25 0
w 39 38 -25 1
w 39 -38 25 0
w 39 -38 -25 1
w 40 39 26 1
w 40 39 -26 1
w 40 -39 26 0
w 40 -39 -26 1
w 41 40 27 1
w 41 40 -27 1
w 41 -40 27 0
w 41 -40 -27 1
w 42 41 28 1
w 42 41 -28 0
w 42 -41 28 1
w 42 -41 -28 1
w 43 29 0
w 43 -29 1
w 44 43 30 0
w 44 43 -30 1
w 44 -43 30 0
w 44 -43 -30 1
w 45 44 31 0
w 45 44 -31 1
w 45 -44 31 0
w 45 -44 -31 0
w 46 45 32 0
w 46 45 -32 1
w 46 -45 32 0
w 46 -45 -32 0
w 47 46 33 1
w 47 46 -33 0
w 47 -46 33 1
w 47 -46 -33 0
w 48 47 34 1
w 48 47 -34 0
w 48 -47 34 0
w 48 -47 -34 0
w 49 48 35 1
w 49 48 -35 1
w 49 -48 35 1
w 49 -48 -35 0
w 50 49 36 0
w 50 49 -36 1
w 50 -49 36 1
w 50 -49 -36 1
w 51 50 37 1
w 51 50 -37 1
w 51 -50 37 0
w 51 -50 -37 0
w 52 51 38 0
w 52 51 -38 1
w 52 -51 38 1
w 52 -51 -38 0
w 53 52 39 0.437086
w 53 52 -39 0.328469
w 53 -52 39 0.837757
w 53 -52 -39 0.179464
w 54 53 40 0
w 54 53 -40 1
w 54 -53 40 0
w 54 -53 -40 0
w 55 54 41 1
w 55 54 -41 0
w 55 -54 41 0
w 55 -54 -41 0
w 56 55 42 0
w 56 55 -42 1
w 56 -55 42 1
w 56 -55 -42 1
w 57 43 1
w 57 -43 0
w 58 57 44 0
w 58 57 -44 1
w 58 -57 44 1
w 58 -57 -44 0
w 59 58 45 0
w 59 58 -45 1
w 59 -58 45 0
w 59 -58 -45 1
w 60 59 46 1
w 60 59 -46 0
w 60 -59 46 0
w 60 -59 -46 1
w 61 60 47 1
w 61 60 -47 1
w 61 -60 47 1
w 61 -60 -47 0
w 62 61 48 1
w 62 61 -48 0
w 62 -61 48 1
w 62 -61 -48 1
w 63 62 49 0
w 63 62 -49 0
w 63 -62 49 1
w 63 -62 -49 1
w 64 63 50 1
w 64 63 -50 0
w 64 -63 50 0
w 64 -63 -50 1
w 65 64 51 0
w 65 64 -51 1
w 65 -64 51 1
w 65 -64 -51 0
w 66 65 52 0
w 66 65 -52 0
w 66 -65 52 1
w 66 -65 -52 1
w 67 66 53 1
w 67 66 -53 0
w 67 -66 53 0
w 67 -66 -53 1
w 68 67 54 1
w 68 67 -54 0
w 68 -67 54 0
w 68 -67 -54 0
w 69 68 55 0
w 69 68 -55 0
w 69 -68 55 0
w 69 -68 -55 1
w 70 69 56 1
w 70 69 -56 0
w 70 -69 56 1
w 70 -69 -56 0
w 71 57 0
w 71 -57 1
w 72 71 58 1
w 72 71 -58 1
w 72 -71 58 0
w 72 -71 -58 0
w 73 72 59 1
w 73 72 -59 1
w 73 -72 59 0
w 73 -72 -59 0
w 74 73 60 0
w 74 73 -60 0
w 74 -73 60 0
w 74 -73 -60 1
w 75 74 61 0
w 75 74 -61 1
w 75 -74 61 0
w 75 -74 -61 1
w 76 75 62 0
w 76 75 -62 0
w 76 -75 62 0
w 76 -75 -62 1
w 77 76 63 1
w 77 76 -63 1
w 77 -76 63 0
w 77 -76 -63 1
w 78 77 64 0.875826
w 78 77 -64 0.666695
w 78 -77 64 0.677994
w 78 -77 -64 0.26448
w 79 78 65 1
w 79 78 -65 1
w 79 -78 65 1
w 79 -78 -65 0
w 80 79 66 1
w 80 79 -66 0
w 80 -79 66 0
w 80 -79 -66 0
w 81 80 67 0.582709
w 81 80 -67 0.0952278
w 81 -80 67 0.732548
w 81 -80 -67 0.0516449
w 82 81 68 0.557181
w 82 81 -68 0.0710058
w 82 -81 68 0.127851
w 82 -81 -68 0.830894
w 83 82 69 0
w 83 82 -69 1
w 83 -82 69 0
w 83 -82 -69 1
w 84 83 70 0.696176
w 84 83 -70 0.458336
w 84 -83 70 0.579776
w 84 -83 -70 0.374171
w 85 71 1
w 85 -71 0
w 86 85 72 1
w 86 85 -72 1
w 86 -85 72 0
w 86 -85 -72 1
w 87 86 73 1
w 87 86 -73 1
w 87 -86 73 0
w 87 -86 -73 1
w 88 87 74 0.991266
w 88 87 -74 0.980929
w 88 -87 74 0.787713
w 88 -87 -74 0.548447
w 89 88 75 1
w 89 88 -75 1
w 89 -88 75 0
w 89 -88 -75 1
w 90 89 76 0
w 90 89 -76 1
w 90 -89 76 0
w 90 -89 -76 0
w 91 90 77 0
w 91 90 -77 0
w 91 -90 77 0
w 91 -90 -77 1
w 92 91 78 1
w 92 91 -78 0
w 92 -91 78 1
w 92 -91 -78 0
w 93 92 79 0
w 93 92 -79 1
w 93 -92 79 0
w 93 -92 -79 0
w 94 93 80 0
w 94 93 -80 1
w 94 -93 80 0
w 94 -93 -80 1
w 95 94 81 1
w 95 94 -81 1
w 95 -94 81 0
w 95 -94 -81 1
w 96 95 82 0.414345
w 96 95 -82 0.354821
w 96 -95 82 0.242108
w 96 -95 -82 0.154621
w 97 96 83 0.1185
w 97 96 -83 0.269068
w 97 -96 83 0.938343
w 97 -96 -83 0.0453832
w 98 97 84 0
w 98 97 -84 1
w 98 -97 84 1
w 98 -97 -84 1
w 99 85 0
w 99 -85 1
w 100 99 86 0
w 100 99 -86 0
w 100 -99 86 1
w 100 -99 -86 1
w 101 100 87 1
w 101 100 -87 0
w 101 -100 87 1
w 101 -100 -87 0
w 102 101 88 0
w 102 101 -88 1
w 102 -101 88 0
w 102 -101 -88 0
w 103 102 89 1
w 103 102 -89 1
w 103 -102 89 1
w 103 -102 -89 0
w 104 103 90 0
w 104 103 -90 1
w 104 -103 90 0
w 104 -103 -90 1
w 105 104 91 0.145989
w 105 104 -91 0.00471227
w 105 -104 91 0.895777
w 105 -104 -91 0.486472
w 106 105 92 0.257234
w 106 105 -92 0.156863
w 106 -105 92 0.442441
w 106 -105 -92 0.770076
w 107 106 93 0
w 107 106 -93 0
w 107 -106 93 1
w 107 -106 -93 0
w 108 107 94 0
w 108 107 -94 0
w 108 -107 94 1
w 108 -107 -94 0
w 109 108 95 1
w 109 108 -95 0
w 109 -108 95 0
w 109 -108 -95 1
w 110 109 96 0
w 110 109 -96 0
w 110 -109 96 1
w 110 -109 -96 1
w 111 110 97 0
w 111 110 -97 0
w 111 -110 97 1
w 111 -110 -97 0
w 112 111 98 1
w 112 111 -98 1
w 112 -111 98 1
w 112 -111 -98 0
w 113 99 1
w 113 -99 0
w 114 113 100 0
w 114 113 -100 0
w 114 -113 100 1
w 114 -113 -100 0
w 115 114 101 1
w 115 114 -101 0
w 115 -114 101 0
w 115 -114 -101 1
w 116 115 102 1
w 116 115 -102 0
w 116 -115 102 1
w 116 -115 -102 1
w 117 116 103 0
w 117 116 -103 1
w 117 -116 103 1
w 117 -116 -103 0
w 118 117 104 0
w 118 117 -104 1
w 118 -117 104 0
w 118 -117 -104 1
w 119 118 105 1
w 119 118 -105 1
w 119 -118 105 0
w 119 -118 -105 1
w 120 119 106 0
w 120 119 -106 1
w 120 -119 106 0
w 120 -119 -106 1
w 121 120 107 1
w 121 120 -107 0
w 121 -120 107 1
w 121 -120 -107 0
w 122 121 108 0
w 122 121 -108 1
w 122 -121 108 1
w 122 -121 -108 1
w 123 122 109 0
w 123 122 -109 1
w 123 -122 109 0
w 123 -122 -109 1
w 124 123 110 1
w 124 123 -110 1
w 124 -123 110 0
w 124 -123 -110 1
w 125 124 111 0.75898
w 125 124 -111 0.970367
w 125 -124 111 0.848367
w 125 -124 -111 0.858021
w 126 125 112 0
w 126 125 -112 0
w 126 -125 112 0
w 126 -125 -112 1
w 127 113 0.187573
w 127 -113 0.935884
w 128 127 114 1
w 128 127 -114 0
w 128 -127 114 1
w 128 -127 -114 1
w 129 128 115 0
w 129 128 -115 0
w 129 -128 115 1
w 129 -128 -115 1
w 130 129 116 1
w 130 129 -116 1
w 130 -129 116 1
w 130 -129 -116 0
w 131 130 117 0
w 131 130 -117 1
w 131 -130 117 0
w 131 -130 -117 0
w 132 131 118 0
w 132 131 -118 0
w 132 -131 118 1
w 132 -131 -118 0
w 133 132 119 0.723757
w 133 132 -119 0.4621
w 133 -132 119 0.574088
w 133 -132 -119 0.91133
w 134 133 120 1
w 134 133 -120 0
w 134 -133 120 0
w 134 -133 -120 0
w 135 134 121 0.774582
w 135 134 -121 0.981356
w 135 -134 121 0.882072
w 135 -134 -121 0.376376
w 136 135 122 1
w 136 135 -122 0
w 136 -135 122 1
w 136 -135 -122 0
w 137 136 123 1
w 137 136 -123 0
w 137 -136 123 1
w 137 -136 -123 1
w 138 137 124 0
w 138 137 -124 1
w 138 -137 124 0
w 138 -137 -124 1
w 139 138 125 1
w 139 138 -125 0
w 139 -138 125 0
w 139 -138 -125 1
w 140 139 126 1
w 140 139 -126 0
w 140 -139 126 1
w 140 -139 -126 1
w 141 127 0.982656
w 141 -127 0.237391
w 142 141 128 0.864728
w 142 141 -128 0.613767
w 142 -141 128 0.243105
w 142 -141 -128 0.368163
w 143 142 129 0
w 143 142 -129 0
w 143 -142 129 1
w 143 -142 -129 0
w 144 143 130 1
w 144 143 -130 0
w 144 -143 130 0
w 144 -143 -130 1
w 145 144 131 0
w 145 144 -131 1
w 145 -144 131 0
w 145 -144 -131 0
w 146 145 132 0.961181
w 146 145 -132 0.896773
w 146 -145 132 0.92266
w 146 -145 -132 0.602383
w 147 146 133 0
w 147 146 -133 1
w 147 -146 133 0
w 147 -146 -133 1
w 148 147 134 1
w 148 147 -134 1
w 148 -147 134 0
w 148 -147 -134 1
w 149 148 135 0.937164
w 149 148 -135 0.491509
w 149 -148 135 0.403865
w 149 -148 -135 0.847458
w 150 149 136 0.989993
w 150 149 -136 0.0946291
w 150 -149 136 0.911781
w 150 -149 -136 0.100452
w 151 150 137 1
w 151 150 -137 0
w 151 -150 137 0
w 151 -150 -137 1
w 152 151 138 1
w 152 151 -138 0
w 152 -151 138 0
w 152 -151 -138 0
w 153 152 139 0
w 153 152 -139 0
w 153 -152 139 0
w 153 -152 -139 1
w 154 153 140 0.56735
w 154 153 -140 0.505514
w 154 -153 140 0.121137
w 154 -153 -140 0.965357
w 155 141 0.0786203
w 155 -141 0.902521
w 156 155 142 0
w 156 155 -142 1
w 156 -155 142 1
w 156 -155 -142 0
w 157 156 143 0.171623
w 157 156 -143 0.57293
w 157 -156 143 0.337395
w 157 -156 -143 0.653798
w 158 157 144 0
w 158 157 -144 1
w 158 -157 144 0
w 158 -157 -144 1
w 159 158 145 0
w 159 158 -145 1
w 159 -158 145 0
w 159 -158 -145 1
w 160 159 146 0
w 160 159 -146 0
w 160 -159 146 0
w 160 -159 -146 1
w 161 160 147 0
w 161 160 -147 0
w 161 -160 147 0
w 161 -160 -147 1
w 162 161 148 0
w 162 161 -148 0
w 162 -161 148 0
w 162 -161 -148 1
w 163 162 149 1
w 163 162 -149 0
w 163 -162 149 0
w 163 -162 -149 0
w 164 163 150 0
w 164 163 -150 1
w 164 -163 150 0
w 164 -163 -150 1
w 165 164 151 1
w 165 164 -151 1
w 165 -164 151 0
w 165 -164 -151 0
w 166 165 152 0
w 166 165 -152 0
w 166 -165 152 1
w 166 -165 -152 1
w 167 166 153 0
w 167 166 -153 1
w 167 -166 153 1
w 167 -166 -153 1
w 168 167 154 1
w 168 167 -154 1
w 168 -167 154 0
w 168 -167 -154 1
w 169 155 0
w 169 -155 1
w 170 169 156 0.00420083
w 170 169 -156 0.753358
w 170 -169 156 0.172996
w 170 -169 -156 0.640938
w 171 170 157 1
w 171 170 -157 1
w 171 -170 157 1
w 171 -170 -157 0
w 172 171 158 1
w 172 171 -158 0
w 172 -171 158 0
w 172 -171 -158 1
w 173 172 159 1
w 173 172 -159 0
w 173 -172 159 1
w 173 -172 -159 1
w 174 173 160 0
w 174 173 -160 0
w 174 -173 160 0
w 174 -173 -160 1
w 175 174 161 1
w 175 174 -161 1
w 175 -174 161 0
w 175 -174 -161 0
w 176 175 162 1
w 176 175 -162 0
w 176 -175 162 1
w 176 -175 -162 0
w 177 176 163 0
w 177 176 -163 1
w 177 -176 163 0
w 177 -176 -163 1
w 178 177 164 0
w 178 177 -164 0
w 178 -177 164 0
w 178 -177 -164 1
w 179 178 165 1
w 179 178 -165 0
w 179 -178 165 1
w 179 -178 -165 0
w 180 179 166 0.612381
w 180 179 -166 0.940097
w 180 -179 166 0.980989
w 180 -179 -166 0.139622
w 181 180 167 0
w 181 180 -167 1
w 181 -180 167 0
w 181 -180 -167 0
w 182 181 168 1
w 182 181 -168 1
w 182 -181 168 0
w 182 -181 -168 0
w 183 169 1
w 183 -169 0
w 184 183 170 1
w 184 183 -170 0
w 184 -183 170 1
w 184 -183 -170 1
w 185 184 171 1
w 185 184 -171 1
w 185 -184 171 1
w 185 -184 -171 0
w 186 185 172 0
w 186 185 -172 1
w 186 -185 172 0
w 186 -185 -172 1
w 187 186 173 0
w 187 186 -173 1
w 187 -186 173 0
w 187 -186 -173 1
w 188 187 174 1
w 188 187 -174 1
w 188 -187 174 0
w 188 -187 -174 1
w 189 188 175 1
w 189 188 -175 1
w 189 -188 175 0
w 189 -188 -175 1
w 190 189 176 0
w 190 189 -176 0
w 190 -189 176 1
w 190 -189 -176 1
w 191 190 177 1
w 191 190 -177 0
w 191 -190 177 0
w 191 -190 -177 1
w 192 191 178 1
w 192 191 -178 1
w 192 -191 178 0
w 192 -191 -178 1
w 193 192 179 0.64978
w 193 192 -179 0.385976
w 193 -192 179 0.341723
w 193 -192 -179 0.402452
w 194 193 180 0
w 194 193 -180 1
w 194 -193 180 1
w 194 -193 -180 0
w 195 194 181 0
w 195 194 -181 1
w 195 -194 181 0
w 195 -194 -181 1
w 196 195 182 0
w 196 195 -182 1
w 196 -195 182 1
w 196 -195 -182 0